c FILE: i080-105

c SOURCE: From steinlib

c DESCRIPTION: Steinlib instance with 80 nodes and 120 edges.

p edge 80 120
e 1 2
e 1 52
e 1 57
e 2 3
e 2 5
e 2 36
e 2 44
e 2 50
e 2 65
e 2 69
e 3 6
e 3 7
e 3 10
e 3 16
e 3 32
e 3 38
e 3 74
e 4 16
e 4 30
e 5 39
e 5 60
e 5 71
e 7 8
e 7 13
e 7 23
e 7 41
e 7 69
e 8 19
e 9 11
e 9 17
e 9 33
e 9 38
e 9 69
e 10 31
e 10 35
e 10 80
e 11 76
e 12 16
e 12 24
e 12 55
e 13 64
e 14 28
e 14 69
e 14 72
e 15 22
e 15 30
e 15 47
e 15 60
e 15 61
e 16 21
e 16 42
e 17 37
e 18 68
e 18 74
e 19 32
e 20 65
e 22 74
e 23 68
e 23 76
e 24 26
e 24 47
e 25 43
e 25 70
e 26 27
e 26 41
e 26 67
e 27 35
e 27 51
e 28 53
e 28 70
e 29 79
e 31 53
e 31 63
e 32 53
e 32 60
e 32 65
e 33 63
e 34 60
e 34 61
e 34 69
e 36 45
e 37 66
e 38 59
e 39 41
e 39 58
e 40 46
e 40 53
e 41 42
e 41 62
e 41 73
e 42 52
e 42 70
e 42 73
e 43 56
e 43 73
e 44 46
e 44 70
e 44 79
e 45 51
e 47 61
e 47 75
e 48 51
e 48 56
e 48 65
e 48 77
e 49 77
e 51 55
e 52 73
e 53 66
e 54 55
e 55 66
e 55 75
e 56 75
e 57 59
e 60 61
e 63 70
e 64 73
e 67 72
e 72 78
e 72 80
